2199.74
0 1 9 3 4 2 7 46 8 17 91 5 6 0
0 14 15 55 12 10 11 18 13 0
0 21 22 23 25 24 20 19 16 0
0 36 31 30 29 26 28 27 0
0 32 35 34 33 39 38 37 0
0 50 51 47 45 44 92 42 43 41 40 0
0 49 48 60 52 54 53 0
0 63 64 62 59 61 57 56 58 0
0 66 65 68 67 69 0
0 73 72 74 75 78 71 70 77 76 0
0 80 79 81 90 88 82 83 84 96 0
0 86 85 98 87 0
0 99 93 97 95 94 89 0
0 100 0
